\* SMT到LP转换生成的线性程序 *\

Minimize
obj: 0

Subject To
c0: 2.83e+11 x - 2.45e+11 y <= 1e+09
c1: - 2.83e+11 x + 2.45e+11 y <= -1
c2: - 2.83e+11 x + 2.45e+11 y <= -0
c3: 2.83e+11 x - 2.45e+11 y <= 1e+09

Bounds
y free
x free

General
y
x

End
